data/CVRPLIB/Vrp-Set-XML100/instances/XML100_3213_01.vrp
NAME : XML100_3213_01
COMMENT : Generated by Queiroga, Sadykov, Uchoa, and Vidal (2021)
TYPE : CVRP
DIMENSION : 101
EDGE_WEIGHT_TYPE : EUC_2D
CAPACITY : 10
NODE_COORD_SECTION
1    0    0   
2    729  651 
3    838  808 
4    55   54  
5    552  638 
6    897  316 
7    231  284 
8    530  692 
9    960  348 
10   841  865 
11   565  727 
12   885  286 
13   465  140 
14   225  75  
15   554  775 
16   925  820 
17   603  979 
18   890  809 
19   230  148 
20   92   26  
21   886  451 
22   935  352 
23   880  374 
24   100  97  
25   820  346 
26   267  106 
27   766  962 
28   453  754 
29   610  801 
30   563  827 
31   926  923 
32   842  716 
33   950  992 
34   580  738 
35   564  789 
36   263  45  
37   959  879 
38   985  866 
39   136  93  
40   629  716 
41   892  876 
42   616  762 
43   252  62  
44   824  893 
45   951  925 
46   971  963 
47   294  85  
48   564  778 
49   966  461 
50   659  864 
51   962  824 
52   890  271 
53   618  896 
54   408  700 
55   591  739 
56   313  56  
57   644  830 
58   584  776 
59   317  79  
60   178  116 
61   950  972 
62   859  907 
63   42   165 
64   301  2   
65   962  348 
66   896  335 
67   180  31  
68   975  981 
69   928  877 
70   111  159 
71   283  166 
72   998  889 
73   781  274 
74   222  1000
75   1000 977 
76   859  451 
77   806  733 
78   905  918 
79   496  610 
80   571  753 
81   610  719 
82   851  1000
83   559  736 
84   557  776 
85   478  856 
86   994  913 
87   308  54  
88   888  378 
89   965  403 
90   848  225 
91   968  959 
92   278  29  
93   587  825 
94   392  109 
95   892  299 
96   133  235 
97   982  881 
98   546  660 
99   967  284 
100  570  812 
101  906  397 
DEMAND_SECTION
1    0   
2    1   
3    1   
4    1   
5    1   
6    1   
7    1   
8    1   
9    1   
10   1   
11   1   
12   1   
13   1   
14   1   
15   1   
16   1   
17   1   
18   1   
19   1   
20   1   
21   1   
22   1   
23   1   
24   1   
25   1   
26   1   
27   1   
28   1   
29   1   
30   1   
31   1   
32   1   
33   1   
34   1   
35   1   
36   1   
37   1   
38   1   
39   1   
40   1   
41   1   
42   1   
43   1   
44   1   
45   1   
46   1   
47   1   
48   1   
49   1   
50   1   
51   1   
52   1   
53   1   
54   1   
55   1   
56   1   
57   1   
58   1   
59   1   
60   1   
61   1   
62   1   
63   1   
64   1   
65   1   
66   1   
67   1   
68   1   
69   1   
70   1   
71   1   
72   1   
73   1   
74   1   
75   1   
76   1   
77   1   
78   1   
79   1   
80   1   
81   1   
82   1   
83   1   
84   1   
85   1   
86   1   
87   1   
88   1   
89   1   
90   1   
91   1   
92   1   
93   1   
94   1   
95   1   
96   1   
97   1   
98   1   
99   1   
100  1   
101  1   
DEPOT_SECTION
1
-1
EOF
