data/CVRPLIB/Vrp-Set-XML100/solutions/XML100_3213_01.sol
Route #1: 11 94 5 65 21 8 64 98 51 89
Route #2: 31 15 50 37 96 71 85 36 68 17
Route #3: 12 72 24 22 87 100 88 48 20 75
Route #4: 1 76 2 9 43 61 81 26 16 73
Route #5: 77 60 32 67 74 45 90 44 30 40
Route #6: 69 18 70 93 58 55 86 63 91 35
Route #7: 62 95 7 10 33 54 97 4 78 6
Route #8: 3 23 38 59 25 46 42 13 66 19
Route #9: 82 79 57 92 29 99 34 47 83 14
Route #10: 53 27 84 52 49 56 28 41 39 80
Cost 20930
